(set-info :smt-lib-version 2.6)
(set-logic UFNIA)
(set-info :source |
Generated by: Geoff Sutcliffe
Generated on: 2026-03-11
Generator: TPTPWorld
Application: Benchmarking automated theorem provers
Time limit: 120.0

These benchmarks are translations from the TPTP Library (Thousands of
Problems for Theorem Provers), see http://www.cs.miami.edu/~tptp/

The TPTP is maintained by Geoff Sutcliffe, and he contributed this
selection of benchmarks to SMT-LIB.  They were exported from the
v9.2.1 realease of TPTP.
|)
(set-info :category "industrial")
(set-info :status "unknown")
; SZS status Success
(declare-sort $$unsorted 0)
(declare-sort tptp.uni 0)
(declare-sort tptp.ty 0)
(declare-fun tptp.sort1 (tptp.ty tptp.uni) Bool)
(declare-fun tptp.witness1 (tptp.ty) tptp.uni)
(assert (forall ((A tptp.ty)) (tptp.sort1 A (tptp.witness1 A))))
(declare-fun tptp.int () tptp.ty)
(declare-fun tptp.real () tptp.ty)
(declare-sort tptp.bool1 0)
(declare-fun tptp.bool () tptp.ty)
(declare-fun tptp.true1 () tptp.bool1)
(declare-fun tptp.false1 () tptp.bool1)
(declare-fun tptp.match_bool1 (tptp.ty tptp.bool1 tptp.uni tptp.uni) tptp.uni)
(assert (forall ((A tptp.ty) (X tptp.bool1) (X1 tptp.uni) (X2 tptp.uni)) (tptp.sort1 A (tptp.match_bool1 A X X1 X2))))
(assert (forall ((A tptp.ty) (Z tptp.uni) (Z1 tptp.uni)) (=> (tptp.sort1 A Z) (= (tptp.match_bool1 A tptp.true1 Z Z1) Z))))
(assert (forall ((A tptp.ty) (Z tptp.uni) (Z1 tptp.uni)) (=> (tptp.sort1 A Z1) (= (tptp.match_bool1 A tptp.false1 Z Z1) Z1))))
(assert (not (= tptp.true1 tptp.false1)))
(assert (forall ((U tptp.bool1)) (or (= U tptp.true1) (= U tptp.false1))))
(declare-sort tptp.tuple02 0)
(declare-fun tptp.tuple0 () tptp.ty)
(declare-fun tptp.tuple03 () tptp.tuple02)
(assert (forall ((U tptp.tuple02)) (= U tptp.tuple03)))
(declare-fun tptp.qtmark () tptp.ty)
(assert (forall ((X Int) (Y Int) (Z Int)) (=> (<= X Y) (=> (<= 0 Z) (<= (* X Z) (* Y Z))))))
(declare-fun tptp.ref (tptp.ty) tptp.ty)
(declare-fun tptp.mk_ref (tptp.ty tptp.uni) tptp.uni)
(assert (forall ((A tptp.ty) (X tptp.uni)) (tptp.sort1 (tptp.ref A) (tptp.mk_ref A X))))
(declare-fun tptp.contents (tptp.ty tptp.uni) tptp.uni)
(assert (forall ((A tptp.ty) (X tptp.uni)) (tptp.sort1 A (tptp.contents A X))))
(assert (forall ((A tptp.ty) (U tptp.uni)) (=> (tptp.sort1 A U) (= (tptp.contents A (tptp.mk_ref A U)) U))))
(assert (forall ((A tptp.ty) (U tptp.uni)) (=> (tptp.sort1 (tptp.ref A) U) (= U (tptp.mk_ref A (tptp.contents A U))))))
(declare-sort tptp.uf_pure1 0)
(declare-fun tptp.uf_pure () tptp.ty)
(declare-fun tptp.repr1 (tptp.uf_pure1 Int Int) Bool)
(declare-fun tptp.size1 (tptp.uf_pure1) Int)
(declare-fun tptp.num1 (tptp.uf_pure1) Int)
(assert (forall ((U tptp.uf_pure1) (X Int)) (=> (and (<= 0 X) (< X (tptp.size1 U))) (exists ((Y Int)) (and (<= 0 Y) (< Y (tptp.size1 U)) (tptp.repr1 U X Y))))))
(assert (forall ((U tptp.uf_pure1) (X Int) (Y Int) (Z Int)) (=> (and (<= 0 X) (< X (tptp.size1 U))) (=> (tptp.repr1 U X Y) (=> (tptp.repr1 U X Z) (= Y Z))))))
(declare-fun tptp.same1 (tptp.uf_pure1 Int Int) Bool)
(assert (forall ((U tptp.uf_pure1) (X Int) (Y Int)) (= (tptp.same1 U X Y) (forall ((R Int)) (= (tptp.repr1 U X R) (tptp.repr1 U Y R))))))
(declare-fun tptp.same_reprs1 (tptp.uf_pure1 tptp.uf_pure1) Bool)
(assert (forall ((U1 tptp.uf_pure1) (U2 tptp.uf_pure1)) (= (tptp.same_reprs1 U1 U2) (forall ((X Int) (R Int)) (= (tptp.repr1 U1 X R) (tptp.repr1 U2 X R))))))
(assert (forall ((U tptp.uf_pure1)) (=> (= (tptp.num1 U) 1) (forall ((X Int) (Y Int)) (let ((_let_1 (tptp.size1 U))) (=> (and (<= 0 X) (< X _let_1)) (=> (and (<= 0 Y) (< Y _let_1)) (tptp.same1 U X Y))))))))
(declare-sort tptp.uf1 0)
(declare-fun tptp.uf () tptp.ty)
(declare-fun tptp.mk_uf1 (tptp.uf_pure1) tptp.uf1)
(declare-fun tptp.state1 (tptp.uf1) tptp.uf_pure1)
(assert (forall ((U tptp.uf_pure1)) (= (tptp.state1 (tptp.mk_uf1 U)) U)))
(assert (forall ((U tptp.uf1)) (= U (tptp.mk_uf1 (tptp.state1 U)))))
(declare-sort tptp.graph1 0)
(declare-fun tptp.graph () tptp.ty)
(declare-fun tptp.path1 (tptp.graph1 Int Int) Bool)
(assert (forall ((G tptp.graph1) (X Int)) (tptp.path1 G X X)))
(assert (forall ((G tptp.graph1) (X Int) (Y Int)) (=> (tptp.path1 G X Y) (tptp.path1 G Y X))))
(assert (forall ((G tptp.graph1) (X Int) (Y Int) (Z Int)) (=> (tptp.path1 G X Y) (=> (tptp.path1 G Y Z) (tptp.path1 G X Z)))))
(assert (forall ((Z tptp.graph1) (Z1 Int) (Z2 Int)) (=> (tptp.path1 Z Z1 Z2) (or (exists ((G tptp.graph1) (X Int)) (and (= Z G) (= Z1 X) (= Z2 X))) (exists ((G tptp.graph1) (X Int) (Y Int)) (and (tptp.path1 G X Y) (= Z G) (= Z1 Y) (= Z2 X))) (exists ((G tptp.graph1) (X Int) (Y Int) (Z3 Int)) (and (tptp.path1 G X Y) (tptp.path1 G Y Z3) (= Z G) (= Z1 X) (= Z2 Z3)))))))
(assert (not (forall ((N Int) (X Int) (Y Int)) (=> (<= 0 N) (=> (and (<= 0 X) (< X N)) (=> (and (<= 0 Y) (< Y N)) (< (+ (* X N) Y) (* N N))))))))
(check-sat)
(exit)
